<instance format="XCSP3" type="COP">
  <variables>
    <array id="x" size="[80]"> 0..79 </array>
  </variables>
  <constraints>
    <group>
      <intension> ne(%0,%1) </intension>
      <args> x[0] x[1] </args>
      <args> x[0] x[3] </args>
      <args> x[0] x[16] </args>
      <args> x[0] x[18] </args>
      <args> x[1] x[2] </args>
      <args> x[1] x[15] </args>
      <args> x[1] x[17] </args>
      <args> x[2] x[5] </args>
      <args> x[2] x[11] </args>
      <args> x[2] x[16] </args>
      <args> x[2] x[20] </args>
      <args> x[2] x[26] </args>
      <args> x[3] x[4] </args>
      <args> x[3] x[11] </args>
      <args> x[3] x[15] </args>
      <args> x[3] x[19] </args>
      <args> x[3] x[26] </args>
      <args> x[4] x[7] </args>
      <args> x[4] x[12] </args>
      <args> x[4] x[18] </args>
      <args> x[4] x[22] </args>
      <args> x[4] x[27] </args>
      <args> x[5] x[6] </args>
      <args> x[5] x[12] </args>
      <args> x[5] x[17] </args>
      <args> x[5] x[21] </args>
      <args> x[5] x[27] </args>
      <args> x[6] x[9] </args>
      <args> x[6] x[13] </args>
      <args> x[6] x[20] </args>
      <args> x[6] x[24] </args>
      <args> x[6] x[28] </args>
      <args> x[7] x[8] </args>
      <args> x[7] x[13] </args>
      <args> x[7] x[19] </args>
      <args> x[7] x[23] </args>
      <args> x[7] x[28] </args>
      <args> x[8] x[10] </args>
      <args> x[8] x[14] </args>
      <args> x[8] x[22] </args>
      <args> x[8] x[25] </args>
      <args> x[8] x[29] </args>
      <args> x[9] x[10] </args>
      <args> x[9] x[14] </args>
      <args> x[9] x[21] </args>
      <args> x[9] x[25] </args>
      <args> x[9] x[29] </args>
      <args> x[10] x[11] </args>
      <args> x[10] x[12] </args>
      <args> x[10] x[13] </args>
      <args> x[10] x[14] </args>
      <args> x[10] x[23] </args>
      <args> x[10] x[24] </args>
      <args> x[10] x[26] </args>
      <args> x[10] x[27] </args>
      <args> x[10] x[28] </args>
      <args> x[10] x[29] </args>
      <args> x[11] x[12] </args>
      <args> x[11] x[13] </args>
      <args> x[11] x[14] </args>
      <args> x[11] x[17] </args>
      <args> x[11] x[18] </args>
      <args> x[11] x[25] </args>
      <args> x[11] x[27] </args>
      <args> x[11] x[28] </args>
      <args> x[11] x[29] </args>
      <args> x[12] x[13] </args>
      <args> x[12] x[14] </args>
      <args> x[12] x[19] </args>
      <args> x[12] x[20] </args>
      <args> x[12] x[25] </args>
      <args> x[12] x[26] </args>
      <args> x[12] x[28] </args>
      <args> x[12] x[29] </args>
      <args> x[13] x[14] </args>
      <args> x[13] x[21] </args>
      <args> x[13] x[22] </args>
      <args> x[13] x[25] </args>
      <args> x[13] x[26] </args>
      <args> x[13] x[27] </args>
      <args> x[13] x[29] </args>
      <args> x[14] x[23] </args>
      <args> x[14] x[24] </args>
      <args> x[14] x[25] </args>
      <args> x[14] x[26] </args>
      <args> x[14] x[27] </args>
      <args> x[14] x[28] </args>
      <args> x[15] x[31] </args>
      <args> x[15] x[33] </args>
      <args> x[15] x[76] </args>
      <args> x[16] x[30] </args>
      <args> x[16] x[32] </args>
      <args> x[16] x[76] </args>
      <args> x[17] x[31] </args>
      <args> x[17] x[35] </args>
      <args> x[17] x[41] </args>
      <args> x[17] x[76] </args>
      <args> x[18] x[30] </args>
      <args> x[18] x[34] </args>
      <args> x[18] x[41] </args>
      <args> x[18] x[76] </args>
      <args> x[19] x[33] </args>
      <args> x[19] x[37] </args>
      <args> x[19] x[42] </args>
      <args> x[19] x[76] </args>
      <args> x[20] x[32] </args>
      <args> x[20] x[36] </args>
      <args> x[20] x[42] </args>
      <args> x[20] x[76] </args>
      <args> x[21] x[35] </args>
      <args> x[21] x[39] </args>
      <args> x[21] x[43] </args>
      <args> x[21] x[76] </args>
      <args> x[22] x[34] </args>
      <args> x[22] x[38] </args>
      <args> x[22] x[43] </args>
      <args> x[22] x[76] </args>
      <args> x[23] x[37] </args>
      <args> x[23] x[40] </args>
      <args> x[23] x[44] </args>
      <args> x[23] x[76] </args>
      <args> x[24] x[36] </args>
      <args> x[24] x[40] </args>
      <args> x[24] x[44] </args>
      <args> x[24] x[76] </args>
      <args> x[25] x[38] </args>
      <args> x[25] x[39] </args>
      <args> x[25] x[41] </args>
      <args> x[25] x[42] </args>
      <args> x[25] x[43] </args>
      <args> x[25] x[44] </args>
      <args> x[25] x[76] </args>
      <args> x[26] x[32] </args>
      <args> x[26] x[33] </args>
      <args> x[26] x[40] </args>
      <args> x[26] x[42] </args>
      <args> x[26] x[43] </args>
      <args> x[26] x[44] </args>
      <args> x[26] x[76] </args>
      <args> x[27] x[34] </args>
      <args> x[27] x[35] </args>
      <args> x[27] x[40] </args>
      <args> x[27] x[41] </args>
      <args> x[27] x[43] </args>
      <args> x[27] x[44] </args>
      <args> x[27] x[76] </args>
      <args> x[28] x[36] </args>
      <args> x[28] x[37] </args>
      <args> x[28] x[40] </args>
      <args> x[28] x[41] </args>
      <args> x[28] x[42] </args>
      <args> x[28] x[44] </args>
      <args> x[28] x[76] </args>
      <args> x[29] x[38] </args>
      <args> x[29] x[39] </args>
      <args> x[29] x[40] </args>
      <args> x[29] x[41] </args>
      <args> x[29] x[42] </args>
      <args> x[29] x[43] </args>
      <args> x[29] x[76] </args>
      <args> x[30] x[46] </args>
      <args> x[30] x[48] </args>
      <args> x[30] x[77] </args>
      <args> x[31] x[45] </args>
      <args> x[31] x[47] </args>
      <args> x[31] x[77] </args>
      <args> x[32] x[46] </args>
      <args> x[32] x[50] </args>
      <args> x[32] x[56] </args>
      <args> x[32] x[77] </args>
      <args> x[33] x[45] </args>
      <args> x[33] x[49] </args>
      <args> x[33] x[56] </args>
      <args> x[33] x[77] </args>
      <args> x[34] x[48] </args>
      <args> x[34] x[52] </args>
      <args> x[34] x[57] </args>
      <args> x[34] x[77] </args>
      <args> x[35] x[47] </args>
      <args> x[35] x[51] </args>
      <args> x[35] x[57] </args>
      <args> x[35] x[77] </args>
      <args> x[36] x[50] </args>
      <args> x[36] x[54] </args>
      <args> x[36] x[58] </args>
      <args> x[36] x[77] </args>
      <args> x[37] x[49] </args>
      <args> x[37] x[53] </args>
      <args> x[37] x[58] </args>
      <args> x[37] x[77] </args>
      <args> x[38] x[52] </args>
      <args> x[38] x[55] </args>
      <args> x[38] x[59] </args>
      <args> x[38] x[77] </args>
      <args> x[39] x[51] </args>
      <args> x[39] x[55] </args>
      <args> x[39] x[59] </args>
      <args> x[39] x[77] </args>
      <args> x[40] x[53] </args>
      <args> x[40] x[54] </args>
      <args> x[40] x[56] </args>
      <args> x[40] x[57] </args>
      <args> x[40] x[58] </args>
      <args> x[40] x[59] </args>
      <args> x[40] x[77] </args>
      <args> x[41] x[47] </args>
      <args> x[41] x[48] </args>
      <args> x[41] x[55] </args>
      <args> x[41] x[57] </args>
      <args> x[41] x[58] </args>
      <args> x[41] x[59] </args>
      <args> x[41] x[77] </args>
      <args> x[42] x[49] </args>
      <args> x[42] x[50] </args>
      <args> x[42] x[55] </args>
      <args> x[42] x[56] </args>
      <args> x[42] x[58] </args>
      <args> x[42] x[59] </args>
      <args> x[42] x[77] </args>
      <args> x[43] x[51] </args>
      <args> x[43] x[52] </args>
      <args> x[43] x[55] </args>
      <args> x[43] x[56] </args>
      <args> x[43] x[57] </args>
      <args> x[43] x[59] </args>
      <args> x[43] x[77] </args>
      <args> x[44] x[53] </args>
      <args> x[44] x[54] </args>
      <args> x[44] x[55] </args>
      <args> x[44] x[56] </args>
      <args> x[44] x[57] </args>
      <args> x[44] x[58] </args>
      <args> x[44] x[77] </args>
      <args> x[45] x[61] </args>
      <args> x[45] x[63] </args>
      <args> x[45] x[78] </args>
      <args> x[46] x[60] </args>
      <args> x[46] x[62] </args>
      <args> x[46] x[78] </args>
      <args> x[47] x[61] </args>
      <args> x[47] x[65] </args>
      <args> x[47] x[71] </args>
      <args> x[47] x[78] </args>
      <args> x[48] x[60] </args>
      <args> x[48] x[64] </args>
      <args> x[48] x[71] </args>
      <args> x[48] x[78] </args>
      <args> x[49] x[63] </args>
      <args> x[49] x[67] </args>
      <args> x[49] x[72] </args>
      <args> x[49] x[78] </args>
      <args> x[50] x[62] </args>
      <args> x[50] x[66] </args>
      <args> x[50] x[72] </args>
      <args> x[50] x[78] </args>
      <args> x[51] x[65] </args>
      <args> x[51] x[69] </args>
      <args> x[51] x[73] </args>
      <args> x[51] x[78] </args>
      <args> x[52] x[64] </args>
      <args> x[52] x[68] </args>
      <args> x[52] x[73] </args>
      <args> x[52] x[78] </args>
      <args> x[53] x[67] </args>
      <args> x[53] x[70] </args>
      <args> x[53] x[74] </args>
      <args> x[53] x[78] </args>
      <args> x[54] x[66] </args>
      <args> x[54] x[70] </args>
      <args> x[54] x[74] </args>
      <args> x[54] x[78] </args>
      <args> x[55] x[68] </args>
      <args> x[55] x[69] </args>
      <args> x[55] x[71] </args>
      <args> x[55] x[72] </args>
      <args> x[55] x[73] </args>
      <args> x[55] x[74] </args>
      <args> x[55] x[78] </args>
      <args> x[56] x[62] </args>
      <args> x[56] x[63] </args>
      <args> x[56] x[70] </args>
      <args> x[56] x[72] </args>
      <args> x[56] x[73] </args>
      <args> x[56] x[74] </args>
      <args> x[56] x[78] </args>
      <args> x[57] x[64] </args>
      <args> x[57] x[65] </args>
      <args> x[57] x[70] </args>
      <args> x[57] x[71] </args>
      <args> x[57] x[73] </args>
      <args> x[57] x[74] </args>
      <args> x[57] x[78] </args>
      <args> x[58] x[66] </args>
      <args> x[58] x[67] </args>
      <args> x[58] x[70] </args>
      <args> x[58] x[71] </args>
      <args> x[58] x[72] </args>
      <args> x[58] x[74] </args>
      <args> x[58] x[78] </args>
      <args> x[59] x[68] </args>
      <args> x[59] x[69] </args>
      <args> x[59] x[70] </args>
      <args> x[59] x[71] </args>
      <args> x[59] x[72] </args>
      <args> x[59] x[73] </args>
      <args> x[59] x[78] </args>
      <args> x[60] x[75] </args>
      <args> x[60] x[79] </args>
      <args> x[61] x[75] </args>
      <args> x[61] x[79] </args>
      <args> x[62] x[75] </args>
      <args> x[62] x[79] </args>
      <args> x[63] x[75] </args>
      <args> x[63] x[79] </args>
      <args> x[64] x[75] </args>
      <args> x[64] x[79] </args>
      <args> x[65] x[75] </args>
      <args> x[65] x[79] </args>
      <args> x[66] x[75] </args>
      <args> x[66] x[79] </args>
      <args> x[67] x[75] </args>
      <args> x[67] x[79] </args>
      <args> x[68] x[75] </args>
      <args> x[68] x[79] </args>
      <args> x[69] x[75] </args>
      <args> x[69] x[79] </args>
      <args> x[70] x[75] </args>
      <args> x[70] x[79] </args>
      <args> x[71] x[75] </args>
      <args> x[71] x[79] </args>
      <args> x[72] x[75] </args>
      <args> x[72] x[79] </args>
      <args> x[73] x[75] </args>
      <args> x[73] x[79] </args>
      <args> x[74] x[75] </args>
      <args> x[74] x[79] </args>
      <args> x[75] x[76] </args>
      <args> x[75] x[77] </args>
      <args> x[75] x[78] </args>
      <args> x[75] x[79] </args>
      <args> x[76] x[77] </args>
      <args> x[76] x[78] </args>
      <args> x[76] x[79] </args>
      <args> x[77] x[78] </args>
      <args> x[77] x[79] </args>
      <args> x[78] x[79] </args>
    </group>
  </constraints>
  <objectives>
    <minimize type="maximum"> x[] </minimize>
  </objectives>
</instance>
